10
50
0 360000
23640 30840
20940 28140
25800 33000
4380 11580
22320 29520
19200 26400
26340 33540
24000 31200
22440 29640
22380 29580
13620 20820
21240 28440
16260 23460
4740 11940
8940 16140
13500 20700
25800 33000
24960 32160
11040 18240
27840 35040
14520 21720
28380 35580
12840 20040
22440 29640
8880 16080
2220 9420
25380 32580
16680 23880
24840 32040
23340 30540
22140 29340
26640 33840
1440 8640
23760 30960
6540 13740
7920 15120
1500 8700
26040 33240
28500 35700
7560 14760
15540 22740
9900 17100
6120 13320
5760 12960
3720 10920
17400 24600
16860 24060
24720 31920
2520 9720
5760 12960